language ESSENCE' 1.0
$ minion Nodes: 1
$ minion TotalTime: 0.000572
$ Savile Row TotalTime: 0.217
letting pain_tuple1 be [2;int(1)]
letting pain_tuple2_tuple1 be [7;int(1)]
letting pain_tuple2_tuple2 be [3;int(1)]
